
Gurobi 10.0.1 (linux64) logging started Sat May 27 06:38:59 2023

Set parameter LogFile to value "logFiles/N-1L-B/N-1L-13U-10F-23V-120D/basic-05-27-2023, 06-38-H50-P80-O15.log"
Gurobi Optimizer version 10.0.1 build v10.0.1rc0 (linux64)

CPU model: Intel(R) Xeon(R) Gold 5115 CPU @ 2.40GHz, instruction set [SSE2|AVX|AVX2|AVX512]
Thread count: 20 physical cores, 40 logical processors, using up to 20 threads

Optimize a model with 62074 rows, 927785 columns and 5370055 nonzeros
Model fingerprint: 0x790f4594
Variable types: 431919 continuous, 495866 integer (495866 binary)
Coefficient statistics:
  Matrix range     [1e+00, 2e+05]
  Objective range  [4e+01, 3e+07]
  Bounds range     [1e+00, 1e+00]
  RHS range        [1e+00, 2e+06]
Presolve removed 25787 rows and 30079 columns (presolve time = 5s) ...
Presolve removed 26477 rows and 30079 columns (presolve time = 10s) ...
Presolve removed 26477 rows and 30079 columns (presolve time = 15s) ...
Presolve removed 26487 rows and 30325 columns (presolve time = 20s) ...
Presolve removed 26487 rows and 30325 columns (presolve time = 25s) ...
Presolve removed 26487 rows and 30325 columns (presolve time = 30s) ...
Presolve removed 26833 rows and 39975 columns
Presolve time: 33.97s
Presolved: 35241 rows, 887810 columns, 4098493 nonzeros
Variable types: 424731 continuous, 463079 integer (463079 binary)
Deterministic concurrent LP optimizer: primal simplex, dual simplex, and barrier
Showing barrier log only...

Root barrier log...

Ordering time: 1.41s

Barrier statistics:
 AA' NZ     : 2.321e+06
 Factor NZ  : 7.511e+06 (roughly 400 MB of memory)
 Factor Ops : 1.003e+10 (less than 1 second per iteration)
 Threads    : 17

                  Objective                Residual
Iter       Primal          Dual         Primal    Dual     Compl     Time
   0  -2.12621304e+16  2.36780374e+13  1.27e+09 4.77e+06  8.45e+11    44s
   1  -1.59939741e+16  3.24863885e+13  9.57e+08 5.14e+06  6.50e+11    44s
   2  -7.94529383e+15  3.90942015e+13  4.76e+08 1.17e+06  3.26e+11    45s
   3  -1.21243254e+15  3.41391876e+13  7.27e+07 3.43e+05  5.04e+10    45s
   4  -1.08451099e+14  2.56282143e+13  6.51e+06 1.28e+03  4.60e+09    46s
   5  -2.13867759e+13  1.54664452e+13  1.28e+06 1.49e-08  9.45e+08    46s
   6  -5.09657090e+12  1.05652489e+13  3.06e+05 1.12e-08  2.31e+08    46s
   7  -3.08365922e+12  8.17628163e+12  1.85e+05 1.06e-08  1.42e+08    47s
   8  -1.23578248e+12  6.39639702e+12  7.42e+04 1.12e-08  5.81e+07    47s
   9  -4.18550871e+11  4.86127916e+12  2.52e+04 1.36e-08  2.03e+07    47s
  10  -3.40159261e+10  3.28766457e+12  2.14e+03 1.32e-08  3.19e+06    48s
  11  -1.48164557e+10  1.86829511e+12  9.87e+02 1.26e-08  1.58e+06    48s
  12  -1.21298631e+10  1.34085997e+12  8.26e+02 1.49e-08  1.16e+06    48s
  13  -4.80023462e+09  8.43243658e+11  3.86e+02 1.40e-08  6.41e+05    49s
  14  -6.16902691e+08  3.41706036e+11  1.36e+02 1.57e-08  2.41e+05    49s
  15  -5.17472517e+08  2.86992388e+11  1.30e+02 4.82e-07  2.07e+05    49s
  16  -4.20392910e+08  2.70000492e+11  1.24e+02 5.73e-07  1.95e+05    50s
  17   7.56417651e+08  1.32424875e+11  5.33e+01 3.83e-07  9.17e+04    50s
  18   1.13986653e+09  1.14208564e+11  3.07e+01 4.11e-07  7.38e+04    51s
  19   1.26892238e+09  9.53414780e+10  2.33e+01 3.77e-07  6.07e+04    51s
  20   1.32707053e+09  8.07626053e+10  2.00e+01 6.24e-07  5.16e+04    51s
  21   1.34117776e+09  7.17293838e+10  1.92e+01 4.51e-07  4.64e+04    52s
  22   1.46041366e+09  5.69882931e+10  1.25e+01 4.69e-07  3.58e+04    52s
  23   1.51704074e+09  4.14114609e+10  9.33e+00 4.50e-07  2.61e+04    53s
  24   1.54636521e+09  2.92643272e+10  7.53e+00 5.97e-07  1.88e+04    53s
  25   1.60888826e+09  2.33803565e+10  4.09e+00 5.25e-07  1.41e+04    54s
  26   1.61679436e+09  2.17234533e+10  3.75e+00 5.29e-07  1.30e+04    54s
  27   1.63915006e+09  1.69143444e+10  2.74e+00 5.02e-07  9.84e+03    55s
  28   1.64241949e+09  1.33115174e+10  2.57e+00 5.75e-07  7.68e+03    55s
  29   1.65855920e+09  1.31000328e+10  1.90e+00 5.87e-07  7.25e+03    55s
  30   1.69015725e+09  8.54805000e+09  1.15e+00 5.63e-07  4.28e+03    56s
  31   1.69666416e+09  6.90794328e+09  8.78e-01 4.16e-07  3.22e+03    56s
  32   1.71036780e+09  4.74144381e+09  4.26e-01 5.82e-07  1.81e+03    57s
  33   1.71932865e+09  3.78442271e+09  1.82e-01 4.85e-07  1.20e+03    57s
  34   1.72119238e+09  3.14058080e+09  1.60e-01 6.40e-07  8.24e+02    58s
  35   1.72377748e+09  2.85502452e+09  9.33e-02 5.10e-07  6.49e+02    58s
  36   1.72654619e+09  2.76604179e+09  6.30e-02 5.52e-07  5.93e+02    58s
  37   1.72806176e+09  2.56400388e+09  5.16e-02 5.36e-07  4.76e+02    59s
  38   1.73006487e+09  2.42152539e+09  4.07e-02 4.59e-07  3.93e+02    59s
  39   1.73138112e+09  2.27372282e+09  2.61e-02 5.08e-07  3.08e+02    60s
  40   1.73368035e+09  1.96713153e+09  2.14e-02 5.99e-07  1.33e+02    60s
  41   1.73656501e+09  1.88639317e+09  1.41e-02 7.57e-07  8.55e+01    61s
  42   1.73905268e+09  1.84642526e+09  9.31e-03 7.78e-07  6.12e+01    61s
  43   1.74148208e+09  1.84015161e+09  6.19e-03 9.76e-07  5.60e+01    61s
  44   1.74272690e+09  1.83266982e+09  5.01e-03 1.00e-06  5.10e+01    62s
  45   1.74375840e+09  1.82132974e+09  4.28e-03 8.39e-07  4.40e+01    62s
  46   1.74460840e+09  1.80935590e+09  3.78e-03 9.29e-07  3.67e+01    63s
  47   1.74627969e+09  1.80304266e+09  3.08e-03 7.41e-07  3.22e+01    63s
  48   1.74729144e+09  1.80186934e+09  2.76e-03 6.93e-07  3.09e+01    64s
  49   1.74860067e+09  1.79293712e+09  2.46e-03 9.64e-07  2.51e+01    64s
  50   1.74864818e+09  1.78922753e+09  2.40e-03 8.81e-07  2.30e+01    65s
  51   1.75059273e+09  1.78589016e+09  1.80e-03 9.68e-07  2.00e+01    65s
  52   1.75135619e+09  1.78250712e+09  1.59e-03 8.83e-07  1.76e+01    66s
  53   1.75232406e+09  1.77794481e+09  1.36e-03 8.53e-07  1.45e+01    66s
  54   1.75351444e+09  1.77731843e+09  1.16e-03 1.14e-06  1.35e+01    67s
  55   1.75420663e+09  1.77466845e+09  1.04e-03 7.07e-07  1.16e+01    67s
  56   1.75514602e+09  1.77377923e+09  8.93e-04 5.67e-07  1.06e+01    68s
  57   1.75572492e+09  1.77276886e+09  8.13e-04 7.12e-07  9.65e+00    68s
  58   1.75688178e+09  1.77116906e+09  6.37e-04 6.03e-07  8.09e+00    69s
  59   1.75792785e+09  1.76862614e+09  4.93e-04 6.05e-07  6.06e+00    69s
  60   1.75828844e+09  1.76812543e+09  4.49e-04 4.97e-07  5.57e+00    70s
  61   1.75892374e+09  1.76696559e+09  3.81e-04 7.41e-07  4.56e+00    71s
  62   1.75982784e+09  1.76616499e+09  2.86e-04 6.80e-07  3.59e+00    71s
  63   1.76072975e+09  1.76557738e+09  1.99e-04 4.84e-07  2.74e+00    72s
  64   1.76176480e+09  1.76465134e+09  1.04e-04 7.23e-07  1.63e+00    72s
  65   1.76226809e+09  1.76386214e+09  6.11e-05 1.16e-06  9.03e-01    73s
  66   1.76255733e+09  1.76359261e+09  3.74e-05 9.38e-07  5.87e-01    73s
  67   1.76280668e+09  1.76334324e+09  1.71e-05 1.06e-06  3.04e-01    74s
  68   1.76289539e+09  1.76320800e+09  1.03e-05 8.66e-07  1.77e-01    74s
  69   1.76297589e+09  1.76311035e+09  4.41e-06 2.24e-06  7.62e-02    74s
  70   1.76298107e+09  1.76310391e+09  4.05e-06 8.96e-07  6.97e-02    75s
  71   1.76299028e+09  1.76308132e+09  3.42e-06 5.58e-07  5.17e-02    75s
  72   1.76299846e+09  1.76306822e+09  2.85e-06 6.08e-07  3.97e-02    76s
  73   1.76302130e+09  1.76305012e+09  1.28e-06 1.00e-06  1.64e-02    76s
  74   1.76303645e+09  1.76304437e+09  6.14e-07 1.32e-06  4.49e-03    77s
  75   1.76303898e+09  1.76304098e+09  1.14e-06 1.25e-06  1.13e-03    77s
  76   1.76303982e+09  1.76304017e+09  2.65e-07 1.73e-06  2.02e-04    77s
  77   1.76303995e+09  1.76304002e+09  1.02e-07 9.68e-07  3.71e-05    78s
  78   1.76303999e+09  1.76303999e+09  8.32e-08 9.66e-07  1.11e-06    78s
  79   1.76303999e+09  1.76303999e+09  1.64e-09 9.54e-07  9.55e-11    78s

Barrier solved model in 79 iterations and 78.36 seconds (71.25 work units)
Optimal objective 1.76303999e+09


Root crossover log...

   27518 DPushes remaining with DInf 0.0000000e+00                79s
       0 DPushes remaining with DInf 0.0000000e+00                79s

    1323 PPushes remaining with PInf 0.0000000e+00                79s
       0 PPushes remaining with PInf 0.0000000e+00                79s

  Push phase complete: Pinf 0.0000000e+00, Dinf 3.8206893e-02     79s


Root simplex log...

Iteration    Objective       Primal Inf.    Dual Inf.      Time
   28779    1.7630400e+09   0.000000e+00   3.820676e-02     79s
   28795    1.7630400e+09   0.000000e+00   0.000000e+00     79s
Concurrent spin time: 0.02s

Solved with barrier
   28795    1.7630400e+09   0.000000e+00   0.000000e+00     80s

Root relaxation: objective 1.763040e+09, 28795 iterations, 42.06 seconds (29.84 work units)
Total elapsed time = 80.83s

    Nodes    |    Current Node    |     Objective Bounds      |     Work
 Expl Unexpl |  Obj  Depth IntInf | Incumbent    BestBd   Gap | It/Node Time

     0     0 1.7630e+09    0  163          - 1.7630e+09      -     -   82s
H    0     0                    1.730885e+09 1.7630e+09  1.86%     -   94s
H    0     0                    1.759689e+09 1.7630e+09  0.19%     -  192s

Explored 1 nodes (34710 simplex iterations) in 192.68 seconds (171.49 work units)
Thread count was 20 (of 40 available processors)

Solution count 2: 1.75969e+09 1.73089e+09 

Optimal solution found (tolerance 1.00e-02)
Best objective 1.759689124172e+09, best bound 1.763039993724e+09, gap 0.1904%
Gurobi Optimizer version 10.0.1 build v10.0.1rc0 (linux64)

CPU model: Intel(R) Xeon(R) Gold 5115 CPU @ 2.40GHz, instruction set [SSE2|AVX|AVX2|AVX512]
Thread count: 20 physical cores, 40 logical processors, using up to 20 threads

Optimize a model with 66618 rows, 946911 columns and 4235079 nonzeros
Model fingerprint: 0x4d7e7926
Variable types: 84946 continuous, 861965 integer (861965 binary)
Coefficient statistics:
  Matrix range     [1e+00, 2e+05]
  Objective range  [4e+01, 3e+07]
  Bounds range     [1e+00, 3e+05]
  RHS range        [1e+00, 1e+06]
Presolve removed 60188 rows and 823451 columns (presolve time = 5s) ...
Presolve removed 60184 rows and 823450 columns
Presolve time: 5.75s
Presolved: 6434 rows, 123461 columns, 444752 nonzeros
Variable types: 32092 continuous, 91369 integer (91359 binary)
Found heuristic solution: objective 1.573828e+09
Deterministic concurrent LP optimizer: primal and dual simplex
Showing first log only...


Root simplex log...

Iteration    Objective       Primal Inf.    Dual Inf.      Time
       0    8.0271285e+08   2.047791e+05   2.107184e+14      7s
   42812    8.0236298e+08   5.959746e+01   0.000000e+00     10s
   43836    1.9288825e+09   0.000000e+00   7.148556e+10     11s
   55610    2.0190444e+09   0.000000e+00   1.038602e+12     15s
   63416    2.0212341e+09   0.000000e+00   9.523178e+10     20s
Concurrent spin time: 1.75s

Solved with dual simplex

Root simplex log...

Iteration    Objective       Primal Inf.    Dual Inf.      Time
   42198    2.0357606e+09   0.000000e+00   0.000000e+00     21s
Extra simplex iterations after uncrush: 211

Root relaxation: objective 2.035761e+09, 42198 iterations, 14.37 seconds (15.82 work units)

    Nodes    |    Current Node    |     Objective Bounds      |     Work
 Expl Unexpl |  Obj  Depth IntInf | Incumbent    BestBd   Gap | It/Node Time

     0     0 2.0358e+09    0  115 1.5738e+09 2.0358e+09  29.4%     -   21s
H    0     0                    2.014665e+09 2.0358e+09  1.05%     -   22s
H    0     0                    2.014738e+09 2.0358e+09  1.04%     -   24s
     0     0 2.0307e+09    0  122 2.0147e+09 2.0307e+09  0.79%     -   28s

Cutting planes:
  Cover: 6
  Implied bound: 26
  Clique: 3
  MIR: 41
  Flow cover: 16
  GUB cover: 1
  RLT: 31
  Relax-and-lift: 7

Explored 1 nodes (45294 simplex iterations) in 28.90 seconds (28.78 work units)
Thread count was 20 (of 40 available processors)

Solution count 3: 2.01474e+09 2.01466e+09 1.57383e+09 

Optimal solution found (tolerance 1.00e-02)
Best objective 2.014737756724e+09, best bound 2.030687613694e+09, gap 0.7917%
Gurobi Optimizer version 10.0.1 build v10.0.1rc0 (linux64)

CPU model: Intel(R) Xeon(R) Gold 5115 CPU @ 2.40GHz, instruction set [SSE2|AVX|AVX2|AVX512]
Thread count: 20 physical cores, 40 logical processors, using up to 20 threads

Optimize a model with 66568 rows, 954158 columns and 3990001 nonzeros
Model fingerprint: 0x6fb3119c
Variable types: 9182 continuous, 944976 integer (944976 binary)
Coefficient statistics:
  Matrix range     [1e+00, 2e+05]
  Objective range  [4e+01, 3e+07]
  Bounds range     [1e+00, 3e+05]
  RHS range        [1e+00, 1e+06]
Presolve removed 65593 rows and 950189 columns
Presolve time: 1.33s
Presolved: 975 rows, 3969 columns, 12099 nonzeros
Variable types: 368 continuous, 3601 integer (3601 binary)
Found heuristic solution: objective 1.680789e+09

Root relaxation: objective 2.078716e+09, 1403 iterations, 0.02 seconds (0.02 work units)

    Nodes    |    Current Node    |     Objective Bounds      |     Work
 Expl Unexpl |  Obj  Depth IntInf | Incumbent    BestBd   Gap | It/Node Time

     0     0 2.0787e+09    0    4 1.6808e+09 2.0787e+09  23.7%     -    1s
H    0     0                    2.078204e+09 2.0787e+09  0.02%     -    1s

Explored 1 nodes (1403 simplex iterations) in 1.86 seconds (1.39 work units)
Thread count was 20 (of 40 available processors)

Solution count 2: 2.0782e+09 1.68079e+09 

Optimal solution found (tolerance 1.00e-02)
Best objective 2.078204116499e+09, best bound 2.078715834549e+09, gap 0.0246%
